NAME : portcgen-15-20
COMMENT : portcgen N=15, seed=20
TYPE : TSP
DIMENSION : 15
EDGE_WEIGHT_TYPE : EUC_2D
NODE_COORD_SECTION
1 375063 -106595
2 -147915 -28261
3 -709457 291562
4 214115 47342
5 129985 508776
6 -120100 -312147
7 5192 12187
8 -73639 -995091
9 129504 264427
10 162567 -146165
11 -163412 34822
12 106033 -185683
13 -272785 -153399
14 -189060 105563
15 534342 -496294
